certificates/rado_a3_c61_N20.cnf
c Rad2 upper bound instance: x1 + 3*x2 - x3 = 61, interval [1,20]
p cnf 20 140
1 2 20 0
-1 -2 -20 0
2 3 20 0
-2 -3 -20 0
3 4 20 0
-3 -4 -20 0
1 5 19 0
-1 -5 -19 0
4 5 20 0
-4 -5 -20 0
2 6 19 0
-2 -6 -19 0
5 6 20 0
-5 -6 -20 0
3 7 19 0
-3 -7 -19 0
6 7 20 0
-6 -7 -20 0
1 8 18 0
-1 -8 -18 0
4 8 19 0
-4 -8 -19 0
7 8 20 0
-7 -8 -20 0
2 9 18 0
-2 -9 -18 0
5 9 19 0
-5 -9 -19 0
8 9 20 0
-8 -9 -20 0
3 10 18 0
-3 -10 -18 0
6 10 19 0
-6 -10 -19 0
9 10 20 0
-9 -10 -20 0
1 11 17 0
-1 -11 -17 0
4 11 18 0
-4 -11 -18 0
7 11 19 0
-7 -11 -19 0
10 11 20 0
-10 -11 -20 0
2 12 17 0
-2 -12 -17 0
5 12 18 0
-5 -12 -18 0
8 12 19 0
-8 -12 -19 0
11 12 20 0
-11 -12 -20 0
3 13 17 0
-3 -13 -17 0
6 13 18 0
-6 -13 -18 0
9 13 19 0
-9 -13 -19 0
12 13 20 0
-12 -13 -20 0
1 14 16 0
-1 -14 -16 0
4 14 17 0
-4 -14 -17 0
7 14 18 0
-7 -14 -18 0
10 14 19 0
-10 -14 -19 0
13 14 20 0
-13 -14 -20 0
2 15 16 0
-2 -15 -16 0
5 15 17 0
-5 -15 -17 0
8 15 18 0
-8 -15 -18 0
11 15 19 0
-11 -15 -19 0
14 15 20 0
-14 -15 -20 0
3 16 0
-3 -16 0
6 16 17 0
-6 -16 -17 0
9 16 18 0
-9 -16 -18 0
12 16 19 0
-12 -16 -19 0
15 16 20 0
-15 -16 -20 0
1 15 17 0
-1 -15 -17 0
4 16 17 0
-4 -16 -17 0
7 17 0
-7 -17 0
10 17 18 0
-10 -17 -18 0
13 17 19 0
-13 -17 -19 0
16 17 20 0
-16 -17 -20 0
2 15 18 0
-2 -15 -18 0
5 16 18 0
-5 -16 -18 0
8 17 18 0
-8 -17 -18 0
11 18 0
-11 -18 0
14 18 19 0
-14 -18 -19 0
17 18 20 0
-17 -18 -20 0
3 15 19 0
-3 -15 -19 0
6 16 19 0
-6 -16 -19 0
9 17 19 0
-9 -17 -19 0
12 18 19 0
-12 -18 -19 0
15 19 0
-15 -19 0
18 19 20 0
-18 -19 -20 0
1 14 20 0
-1 -14 -20 0
4 15 20 0
-4 -15 -20 0
7 16 20 0
-7 -16 -20 0
10 17 20 0
-10 -17 -20 0
13 18 20 0
-13 -18 -20 0
16 19 20 0
-16 -19 -20 0
19 20 0
-19 -20 0
