certificates/rado_a3_c61_N20.drat
-20 0
19 0
-15 0
14 0
16 0
4 0
-10 0
-18 0
-3 0
-12 0
-6 0
-1 0
-8 0
-17 0
0
